67
1 0 31
2 0 30
2 1 52
3 0 58
3 1 45
3 2 16
4 0 34
4 1 19
4 2 47
4 3 37
5 0 39
5 1 65
5 2 2
5 3 2
5 4 20
6 0 7
6 1 46
6 2 9
6 3 49
6 4 6
6 5 20
7 0 60
7 1 64
7 2 41
7 3 43
7 4 43
7 5 11
7 6 51
8 0 58
8 1 49
8 2 51
8 3 39
8 4 20
8 5 65
8 6 52
8 7 49
9 0 41
9 1 21
9 2 6
9 3 67
9 4 37
9 5 62
9 6 25
9 7 59
9 8 48
10 0 49
10 1 35
10 2 42
10 3 2
10 4 4
10 5 26
10 6 9
10 7 49
10 8 9
10 9 48
11 0 61
11 1 22
11 2 16
11 3 47
11 4 55
11 5 34
11 6 59
11 7 49
11 8 28
11 9 12
11 10 42
12 0 2
12 1 64
12 2 16
12 3 64
12 4 20
12 5 38
12 6 12
12 7 35
12 8 42
12 9 1
12 10 29
12 11 48
13 0 25
13 1 7
13 2 31
13 3 26
13 4 31
13 5 46
13 6 7
13 7 4
13 8 45
13 9 48
13 10 66
13 11 61
13 12 42
14 0 66
14 1 42
14 2 50
14 3 38
14 4 22
14 5 53
14 6 14
14 7 24
14 8 30
14 9 3
14 10 20
14 11 61
14 12 51
14 13 53
15 0 65
15 1 18
15 2 50
15 3 66
15 4 1
15 5 9
15 6 59
15 7 36
15 8 63
15 9 9
15 10 7
15 11 64
15 12 27
15 13 32
15 14 10
16 0 43
16 1 12
16 2 56
16 3 34
16 4 21
16 5 65
16 6 21
16 7 51
16 8 66
16 9 43
16 10 2
16 11 32
16 12 43
16 13 22
16 14 44
16 15 65
17 0 47
17 1 48
17 2 60
17 3 40
17 4 48
17 5 37
17 6 56
17 7 21
17 8 64
17 9 61
17 10 34
17 11 60
17 12 59
17 13 1
17 14 13
17 15 52
17 16 31
18 0 33
18 1 26
18 2 40
18 3 10
18 4 28
18 5 11
18 6 56
18 7 53
18 8 33
18 9 49
18 10 2
18 11 39
18 12 20
18 13 13
18 14 47
18 15 25
18 16 26
18 17 49
19 0 52
19 1 27
19 2 43
19 3 5
19 4 13
19 5 32
19 6 17
19 7 36
19 8 63
19 9 26
19 10 10
19 11 16
19 12 58
19 13 43
19 14 50
19 15 26
19 16 52
19 17 7
19 18 31
20 0 25
20 1 57
20 2 12
20 3 18
20 4 28
20 5 22
20 6 21
20 7 7
20 8 60
20 9 61
20 10 17
20 11 12
20 12 34
20 13 34
20 14 13
20 15 25
20 16 65
20 17 8
20 18 56
20 19 12
21 0 62
21 1 6
21 2 56
21 3 64
21 4 17
21 5 60
21 6 22
21 7 38
21 8 63
21 9 20
21 10 32
21 11 32
21 12 10
21 13 40
21 14 8
21 15 60
21 16 16
21 17 9
21 18 5
21 19 50
21 20 60
22 0 28
22 1 44
22 2 22
22 3 27
22 4 26
22 5 35
22 6 1
22 7 5
22 8 63
22 9 43
22 10 30
22 11 2
22 12 28
22 13 21
22 14 59
22 15 1
22 16 62
22 17 36
22 18 58
22 19 1
22 20 36
22 21 53
23 0 15
23 1 40
23 2 53
23 3 24
23 4 8
23 5 33
23 6 15
23 7 52
23 8 46
23 9 58
23 10 23
23 11 51
23 12 29
23 13 62
23 14 62
23 15 65
23 16 26
23 17 16
23 18 8
23 19 19
23 20 56
23 21 52
23 22 48
24 0 38
24 1 2
24 2 24
24 3 66
24 4 2
24 5 5
24 6 25
24 7 28
24 8 45
24 9 15
24 10 37
24 11 36
24 12 28
24 13 58
24 14 31
24 15 50
24 16 65
24 17 20
24 18 1
24 19 36
24 20 28
24 21 63
24 22 54
24 23 57
25 0 14
25 1 23
25 2 37
25 3 12
25 4 59
25 5 38
25 6 35
25 7 57
25 8 60
25 9 41
25 10 4
25 11 36
25 12 17
25 13 49
25 14 31
25 15 54
25 16 52
25 17 13
25 18 37
25 19 42
25 20 29
25 21 47
25 22 22
25 23 43
25 24 45
26 0 15
26 1 62
26 2 60
26 3 7
26 4 34
26 5 64
26 6 34
26 7 58
26 8 6
26 9 15
26 10 8
26 11 6
26 12 44
26 13 3
26 14 15
26 15 2
26 16 21
26 17 52
26 18 54
26 19 13
26 20 48
26 21 22
26 22 64
26 23 50
26 24 33
26 25 50
27 0 5
27 1 8
27 2 14
27 3 10
27 4 5
27 5 22
27 6 55
27 7 35
27 8 56
27 9 57
27 10 27
27 11 18
27 12 24
27 13 32
27 14 44
27 15 34
27 16 51
27 17 8
27 18 23
27 19 24
27 20 7
27 21 7
27 22 49
27 23 61
27 24 18
27 25 24
27 26 53
28 0 36
28 1 55
28 2 66
28 3 28
28 4 50
28 5 26
28 6 41
28 7 28
28 8 45
28 9 56
28 10 49
28 11 35
28 12 63
28 13 48
28 14 5
28 15 64
28 16 46
28 17 18
28 18 27
28 19 19
28 20 43
28 21 14
28 22 38
28 23 35
28 24 47
28 25 7
28 26 34
28 27 54
29 0 36
29 1 66
29 2 42
29 3 61
29 4 4
29 5 39
29 6 48
29 7 49
29 8 38
29 9 6
29 10 30
29 11 11
29 12 19
29 13 47
29 14 58
29 15 22
29 16 30
29 17 12
29 18 38
29 19 59
29 20 64
29 21 2
29 22 45
29 23 54
29 24 44
29 25 14
29 26 23
29 27 7
29 28 24
30 0 37
30 1 55
30 2 10
30 3 23
30 4 4
30 5 9
30 6 49
30 7 11
30 8 64
30 9 53
30 10 65
30 11 36
30 12 4
30 13 27
30 14 36
30 15 64
30 16 59
30 17 57
30 18 6
30 19 22
30 20 41
30 21 23
30 22 54
30 23 41
30 24 44
30 25 61
30 26 7
30 27 26
30 28 42
30 29 38
31 0 30
31 1 43
31 2 60
31 3 47
31 4 33
31 5 32
31 6 67
31 7 18
31 8 60
31 9 26
31 10 42
31 11 42
31 12 61
31 13 13
31 14 64
31 15 30
31 16 19
31 17 4
31 18 29
31 19 57
31 20 3
31 21 55
31 22 36
31 23 41
31 24 36
31 25 59
31 26 59
31 27 20
31 28 31
31 29 21
31 30 52
32 0 36
32 1 53
32 2 52
32 3 8
32 4 54
32 5 9
32 6 31
32 7 10
32 8 34
32 9 35
32 10 22
32 11 47
32 12 6
32 13 66
32 14 14
32 15 41
32 16 42
32 17 13
32 18 24
32 19 41
32 20 66
32 21 9
32 22 67
32 23 65
32 24 40
32 25 41
32 26 35
32 27 35
32 28 27
32 29 1
32 30 33
32 31 60
33 0 35
33 1 40
33 2 51
33 3 11
33 4 44
33 5 18
33 6 10
33 7 9
33 8 21
33 9 40
33 10 47
33 11 5
33 12 30
33 13 42
33 14 16
33 15 33
33 16 65
33 17 37
33 18 57
33 19 24
33 20 14
33 21 28
33 22 47
33 23 63
33 24 33
33 25 38
33 26 57
33 27 58
33 28 10
33 29 7
33 30 30
33 31 31
33 32 53
34 0 1
34 1 22
34 2 19
34 3 42
34 4 30
34 5 40
34 6 12
34 7 7
34 8 25
34 9 7
34 10 54
34 11 16
34 12 48
34 13 61
34 14 1
34 15 26
34 16 30
34 17 50
34 18 44
34 19 16
34 20 36
34 21 27
34 22 51
34 23 25
34 24 29
34 25 35
34 26 8
34 27 45
34 28 51
34 29 8
34 30 48
34 31 27
34 32 17
34 33 58
35 0 34
35 1 51
35 2 65
35 3 62
35 4 39
35 5 5
35 6 50
35 7 1
35 8 38
35 9 13
35 10 66
35 11 45
35 12 2
35 13 42
35 14 21
35 15 19
35 16 61
35 17 32
35 18 3
35 19 10
35 20 38
35 21 6
35 22 9
35 23 36
35 24 54
35 25 17
35 26 3
35 27 46
35 28 65
35 29 15
35 30 66
35 31 16
35 32 2
35 33 51
35 34 19
36 0 23
36 1 6
36 2 13
36 3 49
36 4 43
36 5 5
36 6 7
36 7 28
36 8 47
36 9 12
36 10 8
36 11 13
36 12 47
36 13 28
36 14 56
36 15 59
36 16 33
36 17 39
36 18 11
36 19 56
36 20 6
36 21 9
36 22 14
36 23 30
36 24 39
36 25 4
36 26 49
36 27 54
36 28 51
36 29 39
36 30 54
36 31 27
36 32 63
36 33 22
36 34 3
36 35 54
37 0 59
37 1 28
37 2 55
37 3 45
37 4 58
37 5 22
37 6 60
37 7 19
37 8 10
37 9 49
37 10 52
37 11 49
37 12 20
37 13 44
37 14 49
37 15 29
37 16 31
37 17 31
37 18 57
37 19 26
37 20 20
37 21 49
37 22 67
37 23 38
37 24 7
37 25 60
37 26 35
37 27 19
37 28 41
37 29 13
37 30 51
37 31 23
37 32 12
37 33 37
37 34 3
37 35 31
37 36 37
38 0 66
38 1 34
38 2 15
38 3 35
38 4 7
38 5 6
38 6 30
38 7 51
38 8 40
38 9 27
38 10 59
38 11 66
38 12 44
38 13 20
38 14 32
38 15 23
38 16 5
38 17 38
38 18 55
38 19 13
38 20 4
38 21 60
38 22 19
38 23 4
38 24 18
38 25 62
38 26 67
38 27 31
38 28 41
38 29 21
38 30 65
38 31 42
38 32 45
38 33 66
38 34 39
38 35 31
38 36 55
38 37 59
39 0 32
39 1 16
39 2 39
39 3 13
39 4 43
39 5 62
39 6 34
39 7 30
39 8 4
39 9 11
39 10 60
39 11 24
39 12 16
39 13 4
39 14 63
39 15 8
39 16 35
39 17 37
39 18 12
39 19 31
39 20 11
39 21 2
39 22 27
39 23 59
39 24 18
39 25 21
39 26 22
39 27 41
39 28 14
39 29 13
39 30 47
39 31 30
39 32 14
39 33 13
39 34 39
39 35 29
39 36 8
39 37 25
39 38 12
40 0 60
40 1 37
40 2 1
40 3 11
40 4 38
40 5 65
40 6 57
40 7 43
40 8 37
40 9 20
40 10 64
40 11 5
40 12 38
40 13 20
40 14 33
40 15 51
40 16 42
40 17 47
40 18 8
40 19 51
40 20 64
40 21 46
40 22 31
40 23 28
40 24 11
40 25 31
40 26 7
40 27 52
40 28 44
40 29 66
40 30 9
40 31 35
40 32 53
40 33 57
40 34 59
40 35 23
40 36 38
40 37 7
40 38 44
40 39 53
41 0 40
41 1 34
41 2 39
41 3 1
41 4 40
41 5 29
41 6 42
41 7 65
41 8 63
41 9 22
41 10 49
41 11 1
41 12 48
41 13 46
41 14 28
41 15 65
41 16 30
41 17 55
41 18 23
41 19 62
41 20 35
41 21 43
41 22 45
41 23 40
41 24 51
41 25 49
41 26 24
41 27 62
41 28 59
41 29 3
41 30 28
41 31 6
41 32 42
41 33 4
41 34 5
41 35 22
41 36 67
41 37 30
41 38 20
41 39 11
41 40 47
42 0 18
42 1 61
42 2 54
42 3 44
42 4 31
42 5 38
42 6 4
42 7 40
42 8 6
42 9 5
42 10 54
42 11 48
42 12 43
42 13 3
42 14 67
42 15 56
42 16 20
42 17 41
42 18 47
42 19 65
42 20 61
42 21 60
42 22 39
42 23 59
42 24 15
42 25 26
42 26 5
42 27 13
42 28 41
42 29 29
42 30 50
42 31 4
42 32 13
42 33 30
42 34 60
42 35 31
42 36 8
42 37 41
42 38 32
42 39 51
42 40 44
42 41 15
43 0 41
43 1 58
43 2 2
43 3 47
43 4 17
43 5 24
43 6 24
43 7 17
43 8 15
43 9 16
43 10 65
43 11 33
43 12 12
43 13 24
43 14 8
43 15 42
43 16 29
43 17 30
43 18 61
43 19 53
43 20 52
43 21 32
43 22 43
43 23 66
43 24 33
43 25 49
43 26 10
43 27 29
43 28 38
43 29 53
43 30 62
43 31 22
43 32 22
43 33 29
43 34 56
43 35 34
43 36 21
43 37 55
43 38 55
43 39 15
43 40 17
43 41 61
43 42 1
44 0 17
44 1 67
44 2 50
44 3 4
44 4 64
44 5 5
44 6 60
44 7 31
44 8 1
44 9 26
44 10 36
44 11 32
44 12 67
44 13 49
44 14 52
44 15 52
44 16 60
44 17 39
44 18 12
44 19 49
44 20 28
44 21 13
44 22 40
44 23 25
44 24 38
44 25 58
44 26 59
44 27 7
44 28 50
44 29 7
44 30 63
44 31 54
44 32 45
44 33 50
44 34 22
44 35 66
44 36 38
44 37 43
44 38 20
44 39 64
44 40 30
44 41 14
44 42 59
44 43 22
45 0 45
45 1 65
45 2 42
45 3 25
45 4 60
45 5 5
45 6 64
45 7 49
45 8 3
45 9 4
45 10 17
45 11 50
45 12 12
45 13 54
45 14 12
45 15 39
45 16 14
45 17 5
45 18 58
45 19 30
45 20 45
45 21 16
45 22 57
45 23 58
45 24 34
45 25 5
45 26 5
45 27 66
45 28 3
45 29 49
45 30 10
45 31 60
45 32 55
45 33 20
45 34 59
45 35 58
45 36 7
45 37 25
45 38 40
45 39 54
45 40 1
45 41 57
45 42 52
45 43 16
45 44 49
46 0 39
46 1 20
46 2 64
46 3 3
46 4 58
46 5 54
46 6 52
46 7 33
46 8 43
46 9 33
46 10 7
46 11 44
46 12 4
46 13 7
46 14 37
46 15 22
46 16 50
46 17 56
46 18 31
46 19 50
46 20 58
46 21 41
46 22 10
46 23 1
46 24 64
46 25 61
46 26 32
46 27 31
46 28 59
46 29 5
46 30 42
46 31 39
46 32 46
46 33 41
46 34 44
46 35 46
46 36 64
46 37 20
46 38 54
46 39 37
46 40 3
46 41 47
46 42 63
46 43 38
46 44 30
46 45 50
47 0 27
47 1 17
47 2 49
47 3 14
47 4 13
47 5 16
47 6 22
47 7 20
47 8 31
47 9 51
47 10 54
47 11 67
47 12 20
47 13 41
47 14 24
47 15 25
47 16 49
47 17 66
47 18 64
47 19 19
47 20 16
47 21 31
47 22 1
47 23 15
47 24 11
47 25 29
47 26 51
47 27 12
47 28 57
47 29 27
47 30 42
47 31 42
47 32 31
47 33 8
47 34 21
47 35 16
47 36 46
47 37 25
47 38 18
47 39 48
47 40 57
47 41 4
47 42 61
47 43 7
47 44 20
47 45 54
47 46 49
48 0 14
48 1 46
48 2 1
48 3 6
48 4 4
48 5 56
48 6 31
48 7 24
48 8 49
48 9 26
48 10 48
48 11 50
48 12 46
48 13 67
48 14 59
48 15 65
48 16 43
48 17 16
48 18 31
48 19 38
48 20 31
48 21 14
48 22 32
48 23 36
48 24 58
48 25 35
48 26 8
48 27 38
48 28 36
48 29 23
48 30 22
48 31 6
48 32 20
48 33 30
48 34 29
48 35 64
48 36 18
48 37 37
48 38 32
48 39 19
48 40 9
48 41 29
48 42 64
48 43 2
48 44 4
48 45 38
48 46 7
48 47 11
49 0 52
49 1 13
49 2 1
49 3 35
49 4 65
49 5 16
49 6 5
49 7 50
49 8 55
49 9 17
49 10 34
49 11 60
49 12 40
49 13 38
49 14 24
49 15 43
49 16 28
49 17 10
49 18 43
49 19 4
49 20 46
49 21 54
49 22 63
49 23 35
49 24 52
49 25 3
49 26 33
49 27 8
49 28 2
49 29 15
49 30 36
49 31 49
49 32 8
49 33 16
49 34 38
49 35 35
49 36 14
49 37 54
49 38 45
49 39 41
49 40 48
49 41 57
49 42 8
49 43 10
49 44 30
49 45 51
49 46 55
49 47 1
49 48 25
50 0 33
50 1 37
50 2 63
50 3 29
50 4 57
50 5 50
50 6 42
50 7 1
50 8 11
50 9 31
50 10 27
50 11 13
50 12 34
50 13 55
50 14 21
50 15 44
50 16 1
50 17 58
50 18 42
50 19 63
50 20 62
50 21 54
50 22 24
50 23 38
50 24 33
50 25 2
50 26 11
50 27 4
50 28 53
50 29 26
50 30 51
50 31 58
50 32 16
50 33 32
50 34 37
50 35 60
50 36 3
50 37 15
50 38 26
50 39 4
50 40 22
50 41 42
50 42 37
50 43 57
50 44 15
50 45 55
50 46 13
50 47 17
50 48 28
50 49 37
51 0 3
51 1 11
51 2 65
51 3 56
51 4 12
51 5 19
51 6 12
51 7 29
51 8 54
51 9 5
51 10 3
51 11 18
51 12 47
51 13 26
51 14 32
51 15 8
51 16 47
51 17 44
51 18 26
51 19 1
51 20 16
51 21 61
51 22 5
51 23 22
51 24 61
51 25 66
51 26 59
51 27 25
51 28 39
51 29 35
51 30 63
51 31 4
51 32 36
51 33 67
51 34 8
51 35 61
51 36 41
51 37 29
51 38 7
51 39 35
51 40 19
51 41 51
51 42 49
51 43 13
51 44 23
51 45 10
51 46 13
51 47 24
51 48 29
51 49 24
51 50 56
52 0 67
52 1 43
52 2 18
52 3 24
52 4 24
52 5 62
52 6 7
52 7 5
52 8 22
52 9 9
52 10 51
52 11 4
52 12 34
52 13 53
52 14 40
52 15 49
52 16 58
52 17 61
52 18 19
52 19 6
52 20 29
52 21 42
52 22 60
52 23 27
52 24 22
52 25 21
52 26 67
52 27 35
52 28 17
52 29 30
52 30 41
52 31 50
52 32 13
52 33 34
52 34 28
52 35 66
52 36 60
52 37 38
52 38 14
52 39 58
52 40 24
52 41 20
52 42 56
52 43 48
52 44 39
52 45 57
52 46 1
52 47 51
52 48 8
52 49 34
52 50 44
52 51 65
53 0 6
53 1 5
53 2 42
53 3 19
53 4 8
53 5 48
53 6 19
53 7 17
53 8 61
53 9 33
53 10 64
53 11 19
53 12 44
53 13 43
53 14 11
53 15 64
53 16 24
53 17 46
53 18 43
53 19 18
53 20 62
53 21 48
53 22 6
53 23 45
53 24 37
53 25 36
53 26 14
53 27 12
53 28 39
53 29 25
53 30 52
53 31 2
53 32 12
53 33 30
53 34 31
53 35 49
53 36 15
53 37 40
53 38 55
53 39 15
53 40 28
53 41 53
53 42 45
53 43 55
53 44 25
53 45 5
53 46 46
53 47 60
53 48 28
53 49 30
53 50 1
53 51 37
53 52 11
54 0 45
54 1 16
54 2 60
54 3 1
54 4 55
54 5 57
54 6 23
54 7 38
54 8 33
54 9 20
54 10 26
54 11 1
54 12 42
54 13 10
54 14 39
54 15 32
54 16 21
54 17 50
54 18 46
54 19 45
54 20 28
54 21 54
54 22 22
54 23 13
54 24 36
54 25 35
54 26 33
54 27 52
54 28 52
54 29 10
54 30 50
54 31 50
54 32 29
54 33 20
54 34 3
54 35 63
54 36 16
54 37 17
54 38 32
54 39 46
54 40 12
54 41 7
54 42 26
54 43 31
54 44 60
54 45 34
54 46 40
54 47 47
54 48 63
54 49 28
54 50 48
54 51 26
54 52 49
54 53 64
55 0 54
55 1 50
55 2 53
55 3 27
55 4 59
55 5 11
55 6 46
55 7 61
55 8 65
55 9 60
55 10 49
55 11 34
55 12 51
55 13 33
55 14 21
55 15 22
55 16 64
55 17 51
55 18 36
55 19 17
55 20 2
55 21 56
55 22 25
55 23 31
55 24 61
55 25 44
55 26 47
55 27 26
55 28 47
55 29 63
55 30 53
55 31 19
55 32 47
55 33 19
55 34 9
55 35 13
55 36 2
55 37 13
55 38 49
55 39 13
55 40 60
55 41 13
55 42 8
55 43 11
55 44 13
55 45 66
55 46 66
55 47 28
55 48 56
55 49 51
55 50 57
55 51 59
55 52 25
55 53 52
55 54 27
56 0 55
56 1 21
56 2 66
56 3 21
56 4 16
56 5 43
56 6 19
56 7 48
56 8 23
56 9 17
56 10 44
56 11 49
56 12 54
56 13 12
56 14 21
56 15 27
56 16 51
56 17 7
56 18 33
56 19 26
56 20 42
56 21 22
56 22 51
56 23 62
56 24 19
56 25 14
56 26 43
56 27 2
56 28 10
56 29 62
56 30 17
56 31 65
56 32 20
56 33 52
56 34 3
56 35 32
56 36 36
56 37 40
56 38 59
56 39 9
56 40 1
56 41 65
56 42 13
56 43 2
56 44 5
56 45 16
56 46 45
56 47 38
56 48 13
56 49 37
56 50 61
56 51 66
56 52 9
56 53 28
56 54 6
56 55 4
57 0 61
57 1 40
57 2 22
57 3 63
57 4 5
57 5 6
57 6 22
57 7 10
57 8 23
57 9 55
57 10 57
57 11 16
57 12 46
57 13 7
57 14 38
57 15 39
57 16 28
57 17 67
57 18 41
57 19 13
57 20 47
57 21 11
57 22 2
57 23 53
57 24 53
57 25 60
57 26 43
57 27 26
57 28 52
57 29 26
57 30 9
57 31 59
57 32 36
57 33 23
57 34 35
57 35 58
57 36 33
57 37 34
57 38 14
57 39 28
57 40 3
57 41 60
57 42 1
57 43 27
57 44 61
57 45 40
57 46 33
57 47 59
57 48 55
57 49 35
57 50 61
57 51 32
57 52 9
57 53 27
57 54 48
57 55 58
57 56 31
58 0 65
58 1 59
58 2 37
58 3 22
58 4 17
58 5 50
58 6 60
58 7 28
58 8 6
58 9 50
58 10 62
58 11 62
58 12 35
58 13 1
58 14 10
58 15 6
58 16 53
58 17 40
58 18 61
58 19 5
58 20 52
58 21 1
58 22 39
58 23 35
58 24 14
58 25 18
58 26 47
58 27 30
58 28 20
58 29 30
58 30 5
58 31 41
58 32 12
58 33 51
58 34 20
58 35 18
58 36 34
58 37 33
58 38 4
58 39 59
58 40 7
58 41 8
58 42 28
58 43 35
58 44 38
58 45 55
58 46 65
58 47 42
58 48 8
58 49 2
58 50 21
58 51 45
58 52 67
58 53 41
58 54 24
58 55 53
58 56 37
58 57 66
59 0 35
59 1 23
59 2 31
59 3 21
59 4 50
59 5 8
59 6 59
59 7 19
59 8 48
59 9 37
59 10 34
59 11 34
59 12 6
59 13 8
59 14 50
59 15 22
59 16 19
59 17 64
59 18 37
59 19 31
59 20 12
59 21 15
59 22 39
59 23 2
59 24 5
59 25 44
59 26 51
59 27 51
59 28 26
59 29 50
59 30 24
59 31 26
59 32 67
59 33 63
59 34 15
59 35 42
59 36 34
59 37 12
59 38 54
59 39 7
59 40 39
59 41 41
59 42 64
59 43 24
59 44 67
59 45 10
59 46 57
59 47 35
59 48 33
59 49 22
59 50 20
59 51 31
59 52 11
59 53 45
59 54 36
59 55 35
59 56 8
59 57 28
59 58 3
60 0 59
60 1 54
60 2 18
60 3 5
60 4 47
60 5 58
60 6 52
60 7 66
60 8 58
60 9 56
60 10 15
60 11 29
60 12 41
60 13 49
60 14 17
60 15 15
60 16 2
60 17 26
60 18 45
60 19 6
60 20 16
60 21 31
60 22 3
60 23 62
60 24 66
60 25 53
60 26 67
60 27 16
60 28 32
60 29 6
60 30 41
60 31 49
60 32 16
60 33 4
60 34 61
60 35 16
60 36 63
60 37 4
60 38 43
60 39 45
60 40 40
60 41 25
60 42 55
60 43 32
60 44 44
60 45 34
60 46 34
60 47 55
60 48 52
60 49 62
60 50 6
60 51 32
60 52 17
60 53 28
60 54 52
60 55 18
60 56 46
60 57 56
60 58 23
60 59 28
61 0 63
61 1 58
61 2 9
61 3 2
61 4 55
61 5 25
61 6 54
61 7 61
61 8 60
61 9 66
61 10 36
61 11 9
61 12 20
61 13 23
61 14 42
61 15 15
61 16 41
61 17 10
61 18 41
61 19 48
61 20 3
61 21 48
61 22 17
61 23 45
61 24 37
61 25 59
61 26 21
61 27 18
61 28 42
61 29 23
61 30 55
61 31 34
61 32 54
61 33 61
61 34 1
61 35 56
61 36 17
61 37 7
61 38 38
61 39 66
61 40 66
61 41 5
61 42 36
61 43 36
61 44 23
61 45 67
61 46 15
61 47 63
61 48 12
61 49 14
61 50 55
61 51 59
61 52 26
61 53 48
61 54 33
61 55 31
61 56 14
61 57 65
61 58 36
61 59 27
61 60 15
62 0 6
62 1 32
62 2 15
62 3 53
62 4 47
62 5 20
62 6 14
62 7 48
62 8 10
62 9 14
62 10 48
62 11 9
62 12 4
62 13 51
62 14 51
62 15 61
62 16 66
62 17 6
62 18 20
62 19 21
62 20 63
62 21 29
62 22 37
62 23 24
62 24 9
62 25 32
62 26 9
62 27 17
62 28 62
62 29 16
62 30 6
62 31 7
62 32 65
62 33 12
62 34 55
62 35 25
62 36 6
62 37 62
62 38 49
62 39 60
62 40 27
62 41 1
62 42 1
62 43 50
62 44 32
62 45 14
62 46 56
62 47 56
62 48 51
62 49 31
62 50 53
62 51 13
62 52 47
62 53 39
62 54 49
62 55 29
62 56 59
62 57 8
62 58 58
62 59 45
62 60 27
62 61 7
63 0 3
63 1 4
63 2 24
63 3 34
63 4 40
63 5 39
63 6 55
63 7 50
63 8 60
63 9 51
63 10 7
63 11 34
63 12 64
63 13 38
63 14 66
63 15 46
63 16 20
63 17 37
63 18 1
63 19 16
63 20 9
63 21 1
63 22 25
63 23 15
63 24 36
63 25 59
63 26 60
63 27 33
63 28 12
63 29 13
63 30 65
63 31 38
63 32 52
63 33 60
63 34 39
63 35 45
63 36 19
63 37 4
63 38 53
63 39 19
63 40 39
63 41 42
63 42 19
63 43 20
63 44 6
63 45 40
63 46 59
63 47 51
63 48 46
63 49 65
63 50 3
63 51 62
63 52 42
63 53 1
63 54 53
63 55 67
63 56 44
63 57 49
63 58 42
63 59 49
63 60 19
63 61 22
63 62 31
64 0 49
64 1 60
64 2 26
64 3 20
64 4 30
64 5 27
64 6 56
64 7 38
64 8 52
64 9 25
64 10 63
64 11 9
64 12 1
64 13 62
64 14 2
64 15 27
64 16 38
64 17 56
64 18 29
64 19 14
64 20 35
64 21 43
64 22 19
64 23 6
64 24 12
64 25 50
64 26 40
64 27 27
64 28 62
64 29 38
64 30 10
64 31 25
64 32 22
64 33 40
64 34 10
64 35 60
64 36 2
64 37 49
64 38 21
64 39 49
64 40 65
64 41 3
64 42 17
64 43 30
64 44 13
64 45 18
64 46 5
64 47 12
64 48 56
64 49 24
64 50 40
64 51 20
64 52 28
64 53 65
64 54 49
64 55 11
64 56 33
64 57 51
64 58 45
64 59 54
64 60 5
64 61 60
64 62 19
64 63 21
65 0 35
65 1 2
65 2 38
65 3 61
65 4 65
65 5 44
65 6 7
65 7 24
65 8 8
65 9 62
65 10 5
65 11 1
65 12 15
65 13 47
65 14 65
65 15 44
65 16 47
65 17 4
65 18 21
65 19 62
65 20 20
65 21 15
65 22 63
65 23 3
65 24 9
65 25 34
65 26 38
65 27 13
65 28 60
65 29 9
65 30 52
65 31 28
65 32 61
65 33 47
65 34 48
65 35 28
65 36 6
65 37 44
65 38 3
65 39 20
65 40 54
65 41 20
65 42 58
65 43 2
65 44 15
65 45 63
65 46 55
65 47 30
65 48 44
65 49 18
65 50 38
65 51 66
65 52 5
65 53 19
65 54 11
65 55 24
65 56 41
65 57 58
65 58 17
65 59 63
65 60 58
65 61 31
65 62 67
65 63 45
65 64 24
66 0 60
66 1 14
66 2 30
66 3 23
66 4 41
66 5 64
66 6 49
66 7 61
66 8 57
66 9 55
66 10 32
66 11 61
66 12 15
66 13 34
66 14 54
66 15 31
66 16 22
66 17 24
66 18 67
66 19 52
66 20 44
66 21 7
66 22 41
66 23 44
66 24 26
66 25 63
66 26 67
66 27 67
66 28 54
66 29 41
66 30 27
66 31 64
66 32 7
66 33 12
66 34 28
66 35 54
66 36 19
66 37 47
66 38 29
66 39 34
66 40 1
66 41 61
66 42 39
66 43 41
66 44 54
66 45 43
66 46 67
66 47 67
66 48 63
66 49 43
66 50 41
66 51 29
66 52 64
66 53 63
66 54 49
66 55 8
66 56 37
66 57 1
66 58 13
66 59 56
66 60 18
66 61 25
66 62 44
66 63 61
66 64 24
66 65 7
